500
1000
626
626
625
623
623
622
621
619
619
617
616
615
614
613
613
610
607
605
604
601
600
598
596
595
592
591
590
589
589
588
587
586
584
583
581
581
577
574
572
571
568
565
565
563
563
563
558
557
557
556
555
554
553
553
553
546
545
545
543
543
543
542
541
540
538
537
537
535
533
532
531
530
529
527
526
525
520
520
519
518
517
515
514
513
511
509
508
506
505
501
497
497
496
493
491
486
485
485
481
477
475
473
471
468
468
467
467
467
464
463
461
460
457
457
457
456
450
450
448
447
447
445
445
443
443
441
439
438
438
437
434
434
431
430
427
425
424
424
423
422
422
421
420
419
419
418
415
412
412
412
410
410
408
407
407
406
405
403
403
399
398
397
397
396
395
394
394
393
390
388
387
386
386
385
381
378
378
377
377
376
375
372
370
369
368
367
366
366
366
366
366
364
363
362
362
362
361
360
359
358
357
356
356
352
351
350
350
350
349
348
347
347
343
343
343
342
342
340
340
338
338
337
337
337
336
334
333
331
330
329
328
326
323
323
322
321
319
318
318
317
316
316
316
316
314
313
310
310
308
308
308
307
305
305
305
304
304
304
304
304
303
303
303
302
300
299
298
298
297
297
297
293
290
290
289
288
287
286
286
281
280
279
278
277
276
274
273
272
271
269
269
269
268
266
266
266
264
263
263
263
260
259
259
258
258
254
252
248
247
245
245
244
242
242
241
240
239
235
235
232
232
231
230
229
228
227
227
225
225
220
220
219
217
216
213
213
212
211
208
208
208
208
203
200
200
199
199
198
198
197
197
197
195
195
194
194
192
190
190
188
187
187
186
185
183
183
182
182
182
180
180
178
177
176
176
175
174
172
172
171
170
167
166
166
161
160
160
158
158
156
156
156
156
153
153
152
150
148
147
147
147
141
140
139
139
138
138
138
135
134
131
131
130
128
126
126
125
125
125
124
123
123
123
120
119
119
118
117
116
115
114
113
113
112
111
110
107
106
105
105
104
103
103
101
100
100
98
98
98
98
98
96
94
93
91
89
88
85
84
82
81
78
78
77
75
75
74
72
71
70
68
67
66
64
64
64
64
59
58
58
57
56
54
54
52
51
50
49
46
45
45
43
43
43
42
39
38
38
37
36
